12
[-1, 471, 0, 0, 0, 371, 366, 12, 77, 213, 0, 0, 
471, -1, 305, 362, 0, 314, 0, 0, 129, 0, 0, 27, 
0, 305, -1, 41, 242, 0, 232, 0, 260, 2, 39, 88, 
0, 362, 41, -1, 131, 2, 0, 0, 36, 0, 137, 0, 
0, 0, 242, 131, -1, 184, 19, 137, 156, 41, 35, 15, 
371, 314, 0, 2, 184, -1, 0, 0, 24, 52, 0, 0, 
366, 0, 232, 0, 19, 0, -1, 59, 0, 110, 0, 0, 
12, 0, 0, 0, 137, 0, 59, -1, 200, 0, 304, 215, 
77, 129, 260, 36, 156, 24, 0, 200, -1, 338, 305, 204, 
213, 0, 2, 0, 41, 52, 110, 0, 338, -1, 30, 0, 
0, 0, 39, 137, 35, 0, 0, 304, 305, 30, -1, 0, 
0, 27, 88, 0, 15, 0, 0, 215, 204, 0, 0, -1]